c solution = True
p edge 111 110
e 2 1 1
e 3 1 1
e 4 1 1
e 5 1 1
e 6 1 1
e 7 1 1
e 8 1 1
e 9 1 1
e 10 1 1
e 11 1 1
e 102 11 1
e 103 11 1
e 104 11 1
e 105 11 1
e 106 11 1
e 107 11 1
e 108 11 1
e 109 11 1
e 110 11 1
e 111 11 1
e 92 10 1
e 93 10 1
e 94 10 1
e 95 10 1
e 96 10 1
e 97 10 1
e 98 10 1
e 99 10 1
e 100 10 1
e 101 10 1
e 82 9 1
e 83 9 1
e 84 9 1
e 85 9 1
e 86 9 1
e 87 9 1
e 88 9 1
e 89 9 1
e 90 9 1
e 91 9 1
e 72 8 1
e 73 8 1
e 74 8 1
e 75 8 1
e 76 8 1
e 77 8 1
e 78 8 1
e 79 8 1
e 80 8 1
e 81 8 1
e 62 7 1
e 63 7 1
e 64 7 1
e 65 7 1
e 66 7 1
e 67 7 1
e 68 7 1
e 69 7 1
e 70 7 1
e 71 7 1
e 52 6 1
e 53 6 1
e 54 6 1
e 55 6 1
e 56 6 1
e 57 6 1
e 58 6 1
e 59 6 1
e 60 6 1
e 61 6 1
e 42 5 1
e 43 5 1
e 44 5 1
e 45 5 1
e 46 5 1
e 47 5 1
e 48 5 1
e 49 5 1
e 50 5 1
e 51 5 1
e 32 4 1
e 33 4 1
e 34 4 1
e 35 4 1
e 36 4 1
e 37 4 1
e 38 4 1
e 39 4 1
e 40 4 1
e 41 4 1
e 22 3 1
e 23 3 1
e 24 3 1
e 25 3 1
e 26 3 1
e 27 3 1
e 28 3 1
e 29 3 1
e 30 3 1
e 31 3 1
e 12 2 1
e 13 2 1
e 14 2 1
e 15 2 1
e 16 2 1
e 17 2 1
e 18 2 1
e 19 2 1
e 20 2 1
e 21 2 1
